(set-logic UFDT)
(declare-datatypes ((nat 0)) (((zero) (s (s0 nat)))))
(declare-fun add (nat nat) nat)
(injective add (true true))
(declare-fun leq (nat nat) Bool)
(assert (forall ((y nat)) (= (add zero y) y)))
(assert (forall ((x nat) (y nat)) (= (add (s x) y) (s (add x y)))))
(assert (forall ((y nat)) (leq zero y)))
(assert (forall ((x nat)) (not (leq (s x) zero))))
(assert (forall ((x nat) (y nat)) (= (leq (s x) (s y)) (leq x y))))
(assert (not (forall ((v0 nat) (v1 nat) (v2 nat) (v3 nat) (v4 nat) (v5 nat) (v6 nat) (v7 nat) (v8 nat) (v9 nat)) (= (s (add (add (add (s v5) v0) (s (s v7))) (add (add (s (s (add v4 (s v6)))) (add (s (s v1)) (s (add (add (add (add (s v2) v9) (s v8)) zero) (s (s v3)))))) (s (add (s zero) (s v0)))))) (add (s (add (s (add zero (s (s v0)))) v6)) (s (s (add (add (add (s (add v0 (s (add (s (s (add v5 zero))) (s v8))))) v3) (s (add (s (add (s v1) (add (s v4) v9))) v2))) (s (s v7))))))))))
(check-sat)
